(set-option :produce-models true)
(set-logic QF_UF)
(declare-fun p10() Bool)
(declare-fun p7() Bool)
(declare-fun p21() Bool)
(declare-fun p8() Bool)
(declare-fun p18() Bool)
(declare-fun p3() Bool)
(declare-fun p11() Bool)
(declare-fun p17() Bool)
(declare-fun p14() Bool)
(declare-fun p23() Bool)
(declare-fun p15() Bool)
(declare-fun p13() Bool)
(declare-fun p1() Bool)
(declare-fun p22() Bool)
(declare-fun p16() Bool)
(declare-fun p12() Bool)
(declare-fun p6() Bool)
(declare-fun p5() Bool)
(declare-fun p24() Bool)
(declare-fun p2() Bool)
(declare-fun p9() Bool)
(declare-fun p20() Bool)
(declare-fun p4() Bool)
(declare-fun p19() Bool)
(declare-fun p0() Bool)
(assert
(and (or p10 p7 (not p21)) (or p8 p18 (not p3)) (or p11 p17 p14) (or p18 p23 (not p15)) (or p21 (not p21) (not p13)) (or p15 p8 p1) (or p22 p16 (not p12)) (or (not p8) p6 p8) (or (not p10) p5 (not p3)) (or (not p15) (not p8) (not p13)) (or (not p14) (not p24) p23) (or p23 p5 (not p14)) (or (not p7) (not p24) (not p2)) (or (not p9) p14 (not p17)) (or p2 p2 (not p23)) (or (not p22) p1 p14) (or p5 (not p23) p16) (or p16 (not p15) (not p23)) (or (not p6) p13 (not p24)) (or p9 (not p9) (not p20)) (or p9 (not p5) p4) (or p14 (not p19) (not p16)) (or (not p10) (not p21) p21) (or p7 p15 (not p1)) (or p19 (not p16) (not p4)) (or p11 (not p2) (not p22)) (or (not p5) (not p10) p20) (or (not p22) p9 p16) (or (not p11) (not p13) (not p8)) (or p19 (not p11) (not p21)) (or (not p1) (not p24) p9) (or (not p24) p22 (not p1)) (or (not p0) p15 p9) (or (not p8) (not p21) (not p23)) (or (not p23) p13 p19) (or p6 p16 (not p12)) (or (not p19) (not p1) p22) (or (not p4) (not p21) (not p0)) (or p8 (not p15) p12) (or p13 (not p5) (not p17)) (or p1 p4 p18) (or (not p17) (not p11) p21) (or p13 (not p6) p2) (or (not p18) p14 p1) (or p21 p5 p5) (or p2 p19 p16) (or p18 p17 (not p8)) (or p1 p8 p7) (or p4 (not p22) p8) (or (not p6) (not p24) (not p12)) (or p0 p4 (not p18)) (or p3 (not p13) p18) (or p2 p7 p10) (or (not p2) (not p5) (not p18)) (or (not p17) p20 (not p13)) (or p2 (not p24) p23) (or (not p11) p21 (not p21)) (or p17 p18 p24) (or p17 (not p22) (not p14)) (or p16 (not p15) p19) (or (not p1) (not p1) p14) (or (not p17) p17 p0) (or p8 (not p20) (not p9)) (or p9 (not p6) (not p7)) (or p19 p5 (not p4)) (or p22 p23 p5) (or (not p10) (not p23) (not p10)) (or (not p3) p15 p20) (or p12 p23 (not p0)) (or (not p0) p8 (not p14)) (or p19 p7 p17) (or (not p24) p12 p15) (or p8 (not p6) p23) (or p12 p12 (not p12)) (or p6 (not p18) p6) (or p24 p6 (not p9)) (or (not p17) (not p6) p7) (or (not p24) p18 p16) (or p24 p17 (not p7)) (or p14 (not p3) p3) (or p2 (not p17) (not p24)) (or (not p12) (not p13) p11) (or (not p16) p18 (not p7)) (or p20 (not p23) p0) (or p18 p18 (not p4)) (or p11 (not p11) (not p20)) (or (not p21) (not p14) p8) (or p2 (not p21) p6) (or (not p13) (not p22) p14) (or (not p23) (not p14) (not p3)) (or p0 (not p17) (not p23)) (or (not p20) p13 (not p18)) (or (not p22) p2 (not p9)) (or (not p3) (not p1) (not p16)) (or (not p5) p12 (not p3)) (or (not p9) (not p0) (not p8)) (or p3 p9 p7) (or p19 (not p19) p15) (or p16 (not p17) p10) (or p21 p11 (not p12)) (or p16 p18 (not p18)) (or p19 p0 p15) (or p18 (not p5) p7) (or p4 p18 p22) (or p22 p11 (not p20)) (or p6 p23 p8) (or (not p2) (not p24) (not p11)))
)
(check-sat)
(get-model)
